p cnf 225 804
c t mc
4 -2 0
4 3 0
2 -3 -4 0
5 -1 0
5 4 0
1 -4 -5 0
8 6 0
8 7 0
-6 -7 -8 0
5 8 -9 0
-5 -8 -9 0
5 -8 9 0
-5 8 9 0
11 -4 0
11 -10 0
4 10 -11 0
-14 -12 0
-14 -13 0
12 13 14 0
15 -11 0
15 14 0
11 -14 -15 0
16 9 0
16 15 0
-9 -15 -16 0
17 -7 0
17 -2 0
7 2 -17 0
-20 19 0
-20 -17 0
-19 17 20 0
21 -18 0
21 20 0
18 -20 -21 0
22 -6 0
22 -13 0
6 13 -22 0
21 22 -23 0
-21 -22 -23 0
21 -22 23 0
-21 22 23 0
24 -17 0
24 23 0
17 -23 -24 0
25 -6 0
25 -12 0
6 12 -25 0
-26 -24 0
-26 -25 0
24 25 26 0
-27 16 0
-27 -26 0
-16 26 27 0
-29 28 0
-29 26 0
-28 -26 29 0
30 2 0
30 14 0
-2 -14 -30 0
31 -30 0
31 2 0
30 -2 -31 0
-32 31 0
-32 -10 0
-31 10 32 0
-33 -32 0
-33 17 0
32 -17 33 0
34 -29 0
34 -33 0
29 33 -34 0
-27 -34 -35 0
27 34 -35 0
-27 34 35 0
27 -34 35 0
-2 36 -37 0
2 -36 -37 0
-2 -36 37 0
2 36 37 0
37 38 -39 0
-37 -38 -39 0
37 -38 39 0
-37 38 39 0
-40 -39 0
-40 -13 0
39 13 40 0
-41 35 0
-41 40 0
-35 -40 41 0
-44 -42 0
-44 43 0
42 -43 44 0
44 -9 -45 0
-44 9 -45 0
44 9 45 0
-44 -9 45 0
46 -5 0
46 -14 0
5 14 -46 0
-20 -46 -47 0
20 46 -47 0
-20 46 47 0
20 -46 47 0
48 -12 0
48 47 0
12 -47 -48 0
-49 12 0
-49 38 0
-12 -38 49 0
50 42 0
50 49 0
-42 -49 -50 0
-48 50 -51 0
48 -50 -51 0
-48 -50 51 0
48 50 51 0
52 -28 -53 0
-52 28 -53 0
52 28 53 0
-52 -28 53 0
-54 51 0
-54 -53 0
-51 53 54 0
45 -54 -55 0
-45 54 -55 0
45 54 55 0
-45 -54 55 0
14 56 -57 0
-14 -56 -57 0
14 -56 57 0
-14 56 57 0
-5 58 0
5 58 0
3 -58 -59 0
-3 58 -59 0
3 58 59 0
-3 -58 59 0
-60 -59 0
-60 -7 0
59 7 60 0
62 61 0
62 31 0
-61 -31 -62 0
-60 -62 -63 0
60 62 -63 0
-60 62 63 0
60 -62 63 0
-57 63 -64 0
57 -63 -64 0
-57 -63 64 0
57 63 64 0
55 -64 -65 0
-55 64 -65 0
55 64 65 0
-55 -64 65 0
-66 -28 0
-66 -36 0
28 36 66 0
67 -4 0
67 -13 0
4 13 -67 0
-66 -67 -68 0
66 67 -68 0
-66 67 68 0
66 -67 68 0
-61 8 -69 0
61 -8 -69 0
-61 -8 69 0
61 8 69 0
70 68 0
70 -69 0
-68 69 -70 0
-71 -70 0
-71 50 0
70 -50 71 0
-72 -65 0
-72 -71 0
65 71 72 0
73 -36 0
73 -51 0
36 51 -73 0
74 66 0
74 -73 0
-66 73 -74 0
-75 -54 0
-75 -74 0
54 74 75 0
76 -19 0
76 -3 0
19 3 -76 0
77 -75 0
77 -76 0
75 76 -77 0
-72 77 -78 0
72 -77 -78 0
-72 -77 78 0
72 77 78 0
79 -41 0
79 -78 0
41 78 -79 0
80 6 0
80 10 0
-6 -10 -80 0
80 81 -82 0
-80 -81 -82 0
80 -81 82 0
-80 81 82 0
83 -15 0
83 82 0
15 -82 -83 0
84 -45 0
84 -83 0
45 83 -84 0
-85 -84 0
-85 -28 0
84 28 85 0
-87 30 0
-87 18 0
-30 -18 87 0
-87 -15 -88 0
87 15 -88 0
-87 15 88 0
87 -15 88 0
-24 -88 -89 0
24 88 -89 0
-24 88 89 0
24 -88 89 0
-90 86 0
-90 89 0
-86 -89 90 0
-91 61 0
-91 -30 0
-61 30 91 0
-92 91 0
-92 25 0
-91 -25 92 0
92 -26 -93 0
-92 26 -93 0
92 26 93 0
-92 -26 93 0
94 11 0
94 -93 0
-11 93 -94 0
95 -90 0
95 -94 0
90 94 -95 0
96 -17 0
96 -59 0
17 59 -96 0
-95 96 -97 0
95 -96 -97 0
-95 -96 97 0
95 96 97 0
98 28 0
98 52 0
-28 -52 -98 0
98 91 -99 0
-98 -91 -99 0
98 -91 99 0
-98 91 99 0
-100 -97 0
-100 -99 0
97 99 100 0
101 85 0
101 -100 0
-85 100 -101 0
-8 -87 -102 0
8 87 -102 0
-8 87 102 0
8 -87 102 0
-103 102 0
-103 102 0
-102 103 0
69 -104 -105 0
-69 104 -105 0
69 104 105 0
-69 -104 105 0
106 24 0
106 -105 0
-24 105 -106 0
-107 103 0
-107 106 0
-103 -106 107 0
108 61 0
108 74 0
-61 -74 -108 0
109 46 0
109 81 0
-46 -81 -109 0
-110 70 0
-110 17 0
-70 -17 110 0
-111 109 0
-111 110 0
-109 -110 111 0
54 69 -112 0
-54 -69 -112 0
54 -69 112 0
-54 69 112 0
-113 7 0
-113 61 0
-7 -61 113 0
112 113 -114 0
-112 -113 -114 0
112 -113 114 0
-112 113 114 0
4 -114 -115 0
-4 114 -115 0
4 114 115 0
-4 -114 115 0
-116 111 0
-116 -115 0
-111 115 116 0
117 -108 0
117 116 0
108 -116 -117 0
118 107 0
118 117 0
-107 -117 -118 0
-101 -118 -119 0
101 118 -119 0
-101 118 119 0
101 -118 119 0
58 19 -120 0
-58 -19 -120 0
58 -19 120 0
-58 19 120 0
121 12 0
121 -49 0
-12 49 -121 0
122 120 0
122 -121 0
-120 121 -122 0
-123 87 0
-123 20 0
-87 -20 123 0
124 -38 0
124 46 0
38 -46 -124 0
125 -123 0
125 124 0
123 -124 -125 0
122 125 -126 0
-122 -125 -126 0
122 -125 126 0
-122 125 126 0
-127 119 0
-127 126 0
-119 -126 127 0
-128 -79 0
-128 -127 0
79 127 128 0
129 51 0
129 102 0
-51 -102 -129 0
130 113 0
130 129 0
-113 -129 -130 0
-67 11 -131 0
67 -11 -131 0
-67 -11 131 0
67 11 131 0
132 66 0
132 -5 0
-66 5 -132 0
-133 -132 0
-133 22 0
132 -22 133 0
134 -98 0
134 -49 0
98 49 -134 0
-13 91 -135 0
13 -91 -135 0
-13 -91 135 0
13 91 135 0
-136 -52 0
-136 70 0
52 -70 136 0
-137 135 0
-137 136 0
-135 -136 137 0
58 -137 -138 0
-58 137 -138 0
58 137 138 0
-58 -137 138 0
-139 124 0
-139 -53 0
-124 53 139 0
-140 -139 0
-140 80 0
139 -80 140 0
-141 -138 0
-141 140 0
138 -140 141 0
142 134 0
142 -141 0
-134 141 -142 0
133 -142 -143 0
-133 142 -143 0
133 142 143 0
-133 -142 143 0
-144 -131 0
-144 143 0
131 -143 144 0
-130 144 -145 0
130 -144 -145 0
-130 -144 145 0
130 144 145 0
-146 -42 0
-146 7 0
42 -7 146 0
-147 39 0
-147 43 0
-39 -43 147 0
-146 147 -148 0
146 -147 -148 0
-146 -147 148 0
146 147 148 0
149 10 0
149 -15 0
-10 15 -149 0
-22 -53 -150 0
22 53 -150 0
-22 53 150 0
22 -53 150 0
-149 -150 -151 0
149 150 -151 0
-149 150 151 0
149 -150 151 0
-152 -81 0
-152 17 0
81 -17 152 0
153 151 0
153 -152 0
-151 152 -153 0
-154 50 0
-154 9 0
-50 -9 154 0
155 91 0
155 -26 0
-91 26 -155 0
-156 -38 0
-156 155 0
38 -155 156 0
-9 -156 -157 0
9 156 -157 0
-9 156 157 0
9 -156 157 0
123 73 -158 0
-123 -73 -158 0
123 -73 158 0
-123 73 158 0
159 157 0
159 158 0
-157 -158 -159 0
-154 -159 -160 0
154 159 -160 0
-154 159 160 0
154 -159 160 0
161 -10 0
161 8 0
10 -8 -161 0
162 161 0
162 15 0
-161 -15 -162 0
-163 -162 0
-163 6 0
162 -6 163 0
164 -160 0
164 163 0
160 -163 -164 0
165 153 0
165 164 0
-153 -164 -165 0
148 165 -166 0
-148 -165 -166 0
148 -165 166 0
-148 165 166 0
30 -73 -167 0
-30 73 -167 0
30 73 167 0
-30 -73 167 0
-4 92 -168 0
4 -92 -168 0
-4 -92 168 0
4 92 168 0
-169 -167 0
-169 -168 0
167 168 169 0
169 162 -170 0
-169 -162 -170 0
169 -162 170 0
-169 162 170 0
-166 170 -171 0
166 -170 -171 0
-166 -170 171 0
166 170 171 0
145 171 -172 0
-145 -171 -172 0
145 -171 172 0
-145 171 172 0
173 61 0
173 105 0
-61 -105 -173 0
-36 -52 -174 0
36 52 -174 0
-36 52 174 0
36 -52 174 0
36 174 -175 0
-36 -174 -175 0
36 -174 175 0
-36 174 175 0
-176 173 0
-176 175 0
-173 -175 176 0
-177 93 0
-177 43 0
-93 -43 177 0
-178 1 0
-178 -2 0
-1 2 178 0
-179 132 0
-179 178 0
-132 -178 179 0
-180 31 0
-180 -179 0
-31 179 180 0
181 -50 0
181 -180 0
50 180 -181 0
-104 181 -182 0
104 -181 -182 0
-104 -181 182 0
104 181 182 0
183 -177 0
183 182 0
177 -182 -183 0
184 5 0
184 -13 0
-5 13 -184 0
185 184 0
185 3 0
-184 -3 -185 0
-186 -9 0
-186 185 0
9 -185 186 0
-187 -183 0
-187 -186 0
183 186 187 0
-188 56 0
-188 26 0
-56 -26 188 0
-189 187 0
-189 188 0
-187 -188 189 0
190 176 0
190 189 0
-176 -189 -190 0
172 -190 -191 0
-172 190 -191 0
172 190 191 0
-172 -190 191 0
-192 91 0
-192 -67 0
-91 67 192 0
-17 -2 -193 0
17 2 -193 0
-17 2 193 0
17 -2 193 0
194 91 0
194 -21 0
-91 21 -194 0
193 -194 -195 0
-193 194 -195 0
193 194 195 0
-193 -194 195 0
-196 -192 0
-196 195 0
192 -195 196 0
-197 -24 0
-197 98 0
24 -98 197 0
196 197 -198 0
-196 -197 -198 0
196 -197 198 0
-196 197 198 0
199 66 0
199 -16 0
-66 16 -199 0
200 -38 0
200 -20 0
38 20 -200 0
-201 -199 0
-201 -200 0
199 200 201 0
-202 -14 0
-202 -66 0
14 66 202 0
42 202 -203 0
-42 -202 -203 0
42 -202 203 0
-42 202 203 0
-204 53 0
-204 203 0
-53 -203 204 0
-201 204 -205 0
201 -204 -205 0
-201 -204 205 0
201 204 205 0
-206 198 0
-206 205 0
-198 -205 206 0
-207 -191 0
-207 206 0
191 -206 207 0
-208 105 0
-208 -16 0
-105 16 208 0
209 -15 0
209 208 0
15 -208 -209 0
7 1 -210 0
-7 -1 -210 0
7 -1 210 0
-7 1 210 0
211 -210 0
211 185 0
210 -185 -211 0
-212 -211 0
-212 30 0
211 -30 212 0
209 -212 -213 0
-209 212 -213 0
209 212 213 0
-209 -212 213 0
-6 -114 -214 0
6 114 -214 0
-6 114 214 0
6 -114 214 0
215 -213 0
215 -214 0
213 214 -215 0
-216 -207 0
-216 215 0
207 -215 216 0
217 87 0
217 132 0
-87 -132 -217 0
-218 -53 0
-218 -124 0
53 124 218 0
219 -58 0
219 6 0
58 -6 -219 0
220 70 0
220 19 0
-70 -19 -220 0
-221 -219 0
-221 220 0
219 -220 221 0
-222 218 0
-222 -221 0
-218 221 222 0
217 -222 -223 0
-217 222 -223 0
217 222 223 0
-217 -222 223 0
-216 223 -224 0
216 -223 -224 0
-216 -223 224 0
216 223 224 0
128 224 -225 0
-128 -224 -225 0
128 -224 225 0
-128 224 225 0
-127 -150 0
74 139 223 -210 61 -195 -150 186 180 34 0
-156 31 79 -138 208 144 -180 201 0
-94 -180 60 29 66 -200 -123 -218 52 106 0
-109 118 -174 22 103 -203 198 78 0
26 -55 170 117 -130 -181 0
213 -16 -179 0
-62 88 -150 135 -21 45 0
180 -60 107 0
-53 78 57 -119 0
-106 175 47 129 -167 -146 -149 176 97 0
185 -64 -6 -12 177 78 41 0
-145 218 -40 220 221 172 -32 43 0
-90 -68 -175 -191 -167 -105 53 119 -16 0
201 -90 -24 -4 0
-88 -137 -139 -206 79 0
31 -225 165 112 -61 -205 -158 -23 0
6 -112 124 114 0
-80 -84 -18 -45 37 196 161 -223 0
97 160 128 11 -189 216 -114 78 55 0
215 -70 3 119 -181 -27 -153 45 -57 0
212 -184 53 180 159 -202 -73 -203 -146 126 0
-37 -173 -196 -48 -47 0
213 -80 86 -224 -164 -65 -57 139 0
-119 36 -40 0
195 40 127 0
96 144 0
-113 193 0
80 -124 -22 209 179 128 -159 68 0
3 165 -209 117 -17 164 84 186 -26 -22 0
55 -213 -222 0
-8 -60 -135 -164 -23 -114 0
-8 125 44 -62 59 -149 64 0
-213 180 -123 -200 -90 69 -129 26 0
183 -45 118 104 0
-79 -86 -26 24 106 -190 80 -126 152 0
-66 -51 156 -133 199 134 -7 100 0
17 -107 69 178 208 0
202 90 82 132 171 -190 129 89 -122 174 0
-126 121 -188 91 -184 175 0
-208 -33 -106 -190 -165 0
-65 -204 0
-206 220 0
-57 169 -212 -105 213 -58 0
-62 -207 72 -81 0
4 -76 197 53 87 109 183 -171 0
35 -52 -177 -109 -91 -179 0
145 -190 191 -55 -53 -215 0
10 13 17 0
-38 -123 -81 -47 -94 0
48 1 85 110 193 126 0
-137 -128 89 17 0
-139 -76 -185 -119 196 115 -130 103 -121 0
-213 19 0
-87 -115 200 -165 0
-82 128 193 -62 -130 -86 83 -145 152 0
129 218 111 0
-74 -51 152 -225 87 204 0
-167 170 71 -175 0
170 87 206 -67 -176 116 -152 23 109 0
225 86 -63 -45 146 -139 -182 71 0
17 -160 0
-94 -187 -137 -32 -184 190 -165 -20 -224 31 0
112 101 21 19 -92 -139 -103 -105 147 0
158 2 -46 192 -53 133 65 -188 204 0
-75 197 -144 -147 111 190 112 0
132 -24 0
196 -67 -206 0
169 -147 0
69 162 -1 0
71 -79 -15 0
166 119 -46 -223 -82 0
-44 -5 62 73 -129 -97 9 7 -184 -65 0
19 -144 -69 132 30 -223 201 0
38 -31 0
-6 148 -121 -146 -18 14 24 84 0
-39 157 0
-166 -204 -29 9 189 122 0
-112 -80 219 -119 2 0
-90 186 -84 0
12 -166 77 23 127 144 0
142 39 -88 0
119 -222 -195 -53 -33 57 -132 -96 0
94 -134 29 136 113 0
117 -20 -182 0
106 49 9 74 2 148 18 -96 -72 124 0
19 -182 169 54 174 0
70 -145 212 108 222 52 -84 -159 -91 0
-141 -172 0
-48 -197 -146 -73 -187 143 0
-47 -184 107 120 0
126 -193 17 117 -111 157 39 189 10 0
38 -22 186 -31 196 189 77 0
9 128 -103 -119 214 0
79 -161 117 60 -125 190 151 114 -8 -145 0
118 151 218 -201 0
129 169 -63 -119 -149 -117 -154 59 -110 133 0
31 -47 -109 -212 143 0
-179 159 -171 -11 -193 124 0
88 59 -40 85 -209 -60 0
-34 -48 -147 146 127 161 37 0
176 -132 -88 -171 -213 -153 0
2 -225 -122 -81 -99 0
78 97 -30 212 193 -1 0
1 21 218 222 149 110 91 0
-161 -162 -68 205 -107 0
-218 155 77 142 -65 -172 -193 -126 0
-205 30 -166 159 -60 84 174 -10 0
-176 -211 -223 196 0
196 132 37 20 92 -149 -116 81 -93 0
-155 41 -64 0
-64 -173 78 -41 -218 0
-39 -180 0
81 96 -87 149 -100 207 0
112 -176 -36 -186 0
213 173 0
188 158 127 18 -120 205 -22 -80 0
196 -75 112 -32 -169 -177 -26 19 188 0
76 -188 84 -91 221 -143 -117 -101 14 0
-14 110 -120 127 -74 0
-77 -44 119 140 51 -2 148 134 118 154 0
-145 59 -17 2 202 -146 -52 -76 0
-136 119 99 150 153 -12 47 0
-93 -172 -51 -141 -127 -118 15 74 0
173 152 198 -132 59 0
-151 41 -100 48 -142 123 178 0
-205 -58 40 23 -168 96 -11 37 -101 180 0
-33 161 55 -175 6 -201 51 -193 152 93 0
225 0
